c Random 3-CNF over 40 variables and 80 clauses
c Generated with `cnfgen`
c (C) 2012-2016 Massimo Lauria <lauria.massimo@gmail.com>
c https://massimolauria.github.io/cnfgen
c
c COMMAND LINE: cnfgen --output tmp-3-40-80.dimacs --output-format dimacs randkcnf 3 40 80
c
c sdimacs generated by gen-sdimacs
c
p cnf 40 80
e 21 22 23 24 25 26 27 28 29 30 31 32 33 34 35 36 37 38 39 40 0
r 0.37 1 2 3 4 5 6 7 8 9 10 11 12 13 14 15 16 17 18 19 20 0
-1 -13 -34 0
9 -37 -39 0
-8 -29 31 0
10 25 -36 0
14 28 37 0
-19 -23 28 0
-18 29 -35 0
-19 33 -36 0
17 36 -40 0
8 22 -35 0
-7 -12 -32 0
-7 16 21 0
5 28 35 0
6 8 38 0
2 -24 -38 0
-15 21 -33 0
7 11 12 0
18 31 39 0
-2 -27 -39 0
-21 -29 -34 0
9 13 -39 0
9 -10 32 0
12 13 -23 0
3 12 -30 0
15 -18 -22 0
-24 31 -40 0
7 15 -38 0
10 -28 -33 0
-16 -33 -38 0
-21 -22 -36 0
12 16 -39 0
2 -8 -30 0
-11 -16 -22 0
1 -3 24 0
5 -37 40 0
5 22 -24 0
-15 -19 40 0
-4 5 -28 0
-7 -21 34 0
-1 9 -13 0
-6 -22 29 0
10 -22 -28 0
-6 9 -22 0
6 -27 37 0
5 -22 -27 0
-8 -12 23 0
15 23 25 0
-4 21 26 0
-11 -12 -19 0
16 -31 -35 0
6 -33 35 0
-18 -33 -36 0
-19 -28 36 0
3 -16 -23 0
1 -6 8 0
-5 -7 39 0
10 -12 35 0
23 -28 34 0
-8 23 -24 0
12 -23 -24 0
13 -14 -30 0
7 28 38 0
4 17 -27 0
-6 17 -30 0
3 -14 -17 0
-2 20 -24 0
5 -19 -21 0
7 27 -37 0
25 -30 35 0
6 19 -25 0
22 -28 -35 0
-3 9 -21 0
-3 -21 -36 0
27 -30 -35 0
-26 27 -38 0
-5 -6 -25 0
32 34 -37 0
-13 26 -37 0
10 28 -30 0
12 -16 19 0
